\ SCIP STATISTICS
\   Problem name     : ic97_tension
\   Variables        : 703 (176 binary, 4 integer, 0 implicit integer, 523 continuous)
\   Constraints      : 319
Minimize
 Obj: +1 x3383 +1 x3384 +1 x3385 +1 x3386 +1 x3387 +1 x3388 +1 x3389 +1 x3390 +1 x3391 +1 x3392 +1 x3393
      +1 x3394 +1 x3395 +1 x3396 +1 x1 +1 x2 +1 x3 +1 x4 +1 x5 +1 x6 +1 x7 +1 x8 +1 x9 +1 x10 +1 x11 +1 x13
      +1 x25 +1 x26 +1 x28 +1 x29 +1 x30 +1 x31 +1 x49 +1 x51 +1 x52 +1 x54 +1 x57 +1 x58 +1 x59 +1 x61
      +1 x65 +1 x66 +1 x67 +1 x69 +1 x79 +1 x82 +1 x83 +1 x86 +1 x3225 +1 x3226 +1 x3227 +1 x3228 +1 x3229
      +1 x3230 +1 x3231 +1 x3232 +1 x3233 +1 x3234 +1 x3235 +1 x3236 +1 x3237 +1 x3238 +1 x3239 +1 x3240
      +1 x3241 +1 x3242 +1 x3243 +1 x3244 +1 x3245 +1 x3246 +1 x3247 +1 x3248 +1 x3249 +1 x3250 +1 x3251
      +1 x3252 +1 x3253 +1 x3254 +1 x3255 +1 x3256 +1 x3257 +1 x3258 +1 x3259 +1 x3260 +1 x3261 +1 x3263
      +1 x3264 +1 x3265 +1 x3266 +1 x3267 +1 x3268 +1 x3269 +1 x3270 +1 x3271 +1 x3272 +1 x3273 +1 x3274
      +1 x3275 +1 x3276 +1 x3277 +1 x3278 +1 x3279 +1 x3280 +1 x3281 +1 x3282 +1 x3283 +1 x3284 +1 x3285
      +1 x3286 +1 x3287 +1 x3289 +1 x3290 +1 x3291 +1 x3292 +1 x3293 +1 x3294 +1 x3295 +1 x3296 +1 x3297
      +1 x3298 +1 x3299 +1 x3300 +1 x3301 +1 x3302 +1 x3303 +1 x3304 +1 x3305 +1 x3306 +1 x3307 +1 x3308
      +1 x3309 +1 x3310 +1 x3311 +1 x3312 +1 x3313 +1 x3314 +1 x3315 +1 x3316 +1 x3317 +1 x3318 +1 x3319
      +1 x3320 +1 x3321 +1 x3322 +1 x3323 +1 x3324 +1 x3327 +1 x3328 +1 x3329 +1 x3330 +1 x3331 +1 x3332
      +1 x3333 +1 x3334 +1 x3335 +1 x3336 +1 x3337 +1 x3346 +1 x3347 +1 x3348 +1 x3349 +1 x3350 +1 x3351
      +1 x3352 +1 x3353 +1 x3354 +1 x3355 +1 x3356 +1 x3357 +1 x3358 +1 x3359 +1 x3360 +1 x3361 +1 x3362
      +1 x3363 +1 x3364 +1 x3365 +1 x3366 +1 x3367 +1 x3368 +1 x3369 +1 x3370 +1 x3371 +1 x3372 +1 x3373
      +1 x3374 +1 x3375 +1 x3376 +1 x3377 +1 x3378 +1 x3379 +1 x3380 +1 x3381 +1 x3382
Subject to
 cycle0: +1 x3279 -1 x3319 -1 x3417 +1 x3423 = +0
 cycle1: -1 x3331 +1 x3365 +1 x2755 -1 x2779 = +0
 cycle2: -1 x3331 +1 x3347 +1 x2754 -1 x2778 = +0
 cycle3: -1 x3237 -1 x3238 -1 x3239 -1 x3240 +1 x3389 +1 x3390 +1 x3391 +1 x3392 +1 x3397 -1 x1756 = +0
 cycle4: -1 x2779 -1 x2452 +1 x2454 = +0
 cycle5: -1 x2779 +1 x2778 +1 x2909 = +60
 cycle6: -1 x2778 -1 x2452 +1 x2453 = -60
 cycle7: -1 x3347 +1 x3365 -1 x2779 +1 x2778 +1 x2893 = +60
 cycle8: +1 x3348 +1 x3349 -1 x3366 -1 x3367 -1 x2779 +1 x2778 +1 x2937 = +60
 cycle9: -1 x3295 +1 x3347 -1 x2778 -1 x2452 +1 x2421 = -60
 cycle10: -1 x3330 -1 x3331 +1 x3346 +1 x3347 -1 x2778 +1 x2748 = +60
 cycle11: -1 x3335 +1 x3363 +1 x2833 -1 x3435 = +0
 cycle12: +1 x3296 -1 x3332 -1 x2452 +1 x3418 = +0
 cycle13: +1 x3348 +1 x3349 +1 x3350 -1 x3366 -1 x3367 -1 x3368 -1 x2779 +1 x2778 +1 x2947 = +60
 cycle14: +1 x3294 +1 x3295 -1 x3330 -1 x3331 +1 x2452 -1 x2406 = +0
 cycle15: -1 x3295 +1 x3365 -1 x2779 -1 x2452 +1 x2422 = +0
 cycle16: -1 x3295 +1 x3331 -1 x2452 +1 x2420 = +0
 cycle17: +1 x30 -1 x3283 -1 x3284 +1 x3323 +1 x3413 +1 x2382 = +60
 cycle18: +1 x28 -1 x30 -1 x3413 -1 x2266 = -60
 cycle19: +1 x3280 +1 x3281 -1 x3320 -1 x3321 -1 x3423 +1 x2368 = +0
 cycle20: -1 x30 +1 x3284 -1 x3413 -1 x2386 = -60
 cycle21: +1 x51 -1 x52 +1 x3374 -1 x3376 -1 x1756 -1 x3415 = -60
 cycle22: +1 x3374 -1 x3376 -1 x3415 +1 x3154 = +0
 cycle23: -1 x57 +1 x58 -1 x3415 +1 x1617 = +0
 cycle24: +1 x49 -1 x54 -1 x1842 -1 x3125 = -120
 cycle25: -1 x3373 +1 x3375 +1 x3125 -1 x3132 = +0
 cycle26: +1 x3336 -1 x3364 -1 x3435 +1 x2861 = +0
 cycle27: -1 x3320 +1 x3364 +1 x3427 -1 x2719 = +0
 cycle28: -1 x3266 +1 x3291 +1 x2177 -1 x2183 = +0
 cycle29: -1 x3348 +1 x3366 +1 x2909 -1 x2927 = +0
 cycle30: +1 x3294 +1 x3295 -1 x3346 -1 x3347 +1 x2453 -1 x2412 = -60
 cycle31: +1 x3280 -1 x3336 -1 x3424 +1 x2337 = +0
 cycle32: -1 x3279 +1 x3319 +1 x3417 -1 x3424 +1 x3426 = +60
 cycle33: -1 x3334 -1 x3335 +1 x3362 +1 x3363 -1 x3435 +1 x2823 = +0
 cycle34: -1 x3435 +1 x3427 -1 x3426 = -60
 cycle35: +1 x3320 -1 x3336 -1 x3426 +1 x2718 = +0
 cycle36: -1 x3435 -1 x3424 +1 x3425 = +0
 cycle37: +1 x59 -1 x61 -1 x3132 +1 x1538 = +0
 cycle38: +1 x3305 -1 x3316 -1 x2583 +1 x2587 = +0
 cycle39: -1 x61 +1 x79 -1 x82 +1 x3307 -1 x1519 +1 x1351 = +0
 cycle40: +1 x7 -1 x83 +1 x86 +1 x3236 +1 x3305 -1 x3316 -1 x3317 -1 x3318 +1 x3371 -1 x3372 -1 x2583
  +1 x1353 = +0
 cycle41: +1 x3 +1 x9 -1 x3249 -1 x3308 = +0
 cycle42: +1 x7 -1 x83 +1 x86 +1 x3236 +1 x3305 -1 x3316 -1 x3317 -1 x3318 -1 x2583 +1 x1352 = +0
 cycle43: +1 x6 -1 x9 -1 x3297 +1 x3308 -1 x3419 +1 x3399 = +0
 cycle44: +1 x1 -1 x3308 -1 x1538 +1 x3419 = +0
 cycle45: +1 x3304 +1 x3305 -1 x3315 -1 x3316 +1 x2587 -1 x2567 = +0
 cycle46: +1 x7 +1 x57 -1 x58 +1 x3305 -1 x3316 -1 x3317 +1 x3415 -1 x2583 = +0
 cycle47: +1 x7 +1 x3236 +1 x3305 -1 x3316 -1 x3317 -1 x3318 -1 x2583 +1 x3421 = +0
 cycle48: +1 x1 +1 x11 -1 x13 -1 x3230 +1 x3377 -1 x3379 -1 x3399 -1 x3161 = -60
 cycle49: -1 x7 +1 x83 -1 x86 -1 x3236 -1 x3305 +1 x3316 +1 x3317 +1 x3318 -1 x3371 +1 x3372 +1 x2583
  -1 x3403 +1 x3401 = +60
 cycle50: -1 x7 +1 x83 -1 x86 -1 x3236 -1 x3305 +1 x3316 +1 x3317 +1 x3318 -1 x3371 +1 x3372 +1 x2583
  -1 x3404 +1 x3402 = +0
 cycle51: -1 x61 +1 x3307 -1 x1519 +1 x1511 = +0
 cycle52: +1 x9 -1 x3249 +1 x3297 -1 x3308 +1 x3419 +1 x1979 = +60
 cycle53: +1 x4 +1 x10 -1 x3254 -1 x3317 = +0
 cycle54: +1 x9 -1 x11 +1 x13 -1 x3308 -1 x3377 +1 x3379 +1 x3419 +1 x3161 = +60
 cycle55: -1 x65 +1 x66 +1 x3399 -1 x3205 = +0
 cycle56: -1 x3298 +1 x3309 +1 x3419 -1 x2531 = +0
 cycle57: +1 x3229 -1 x3307 +1 x1538 -1 x1511 = +0
 cycle58: +1 x3298 +1 x3299 -1 x3309 -1 x3310 -1 x3419 +1 x2535 = +0
 cycle59: +1 x9 +1 x13 -1 x3249 -1 x3308 +1 x3419 +1 x1990 = +60
 cycle60: -1 x9 +1 x11 -1 x3297 +1 x3308 -1 x3419 +1 x2494 = +0
 cycle61: +1 x3303 +1 x3304 +1 x3305 -1 x3314 -1 x3315 -1 x3316 +1 x2587 -1 x2561 = +0
 cycle62: +1 x61 -1 x3307 +1 x3132 +1 x2628 = +60
 cycle63: +1 x9 -1 x11 +1 x13 -1 x3308 +1 x3419 +1 x3165 = +60
 cycle64: +1 x2 -1 x10 -1 x1616 -1 x2045 = -60
 cycle65: -1 x3280 +1 x3320 +1 x3423 -1 x2336 = +0
 cycle66: +1 x8 -1 x10 -1 x2587 -1 x2048 = -60
 cycle67: +1 x10 -1 x3254 +1 x2587 +1 x2043 = +60
 cycle68: -1 x10 +1 x3254 -1 x1616 +1 x1601 = +0
 cycle69: -1 x10 +1 x3306 -1 x2587 -1 x2045 = -60
 cycle70: -1 x3333 -1 x3334 -1 x3335 +1 x3361 +1 x3362 +1 x3363 -1 x3427 +1 x3426 +1 x2805 = +60
 cycle71: +1 x58 -1 x83 +1 x86 -1 x3318 +1 x3371 -1 x3372 +1 x1353 -1 x1624 = +0
 cycle72: +1 x83 -1 x86 -1 x3235 -1 x3236 +1 x3317 +1 x3318 -1 x3371 +1 x3372 -1 x1353 +1 x1616 = +0
 cycle73: +1 x29 -1 x3265 -1 x3266 -1 x3267 -1 x3268 +1 x3275 +1 x3276 +1 x3290 -1 x3401 +1 x3402 +1 x2175
  = +0
 cycle74: -1 x65 +1 x3250 +1 x3399 +1 x2027 = +60
 cycle75: +1 x3231 +1 x3232 -1 x3250 -1 x3251 -1 x3399 +1 x1575 = +0
 cycle76: -1 x3267 -1 x3268 +1 x3275 +1 x3276 -1 x3401 +1 x3402 +1 x2182 = +0
 cycle77: +1 x3369 -1 x3370 +1 x1351 -1 x1350 = +0
 cycle78: +1 x65 -1 x66 +1 x3381 -1 x3385 -1 x3399 +1 x3210 = +0
 cycle79: -1 x2107 +1 x2105 +1 x2250 = +60
 cycle80: +1 x3273 -1 x3370 -1 x2250 +1 x2264 = +0
 cycle81: +1 x3257 -1 x3370 -1 x2107 +1 x2128 = +0
 cycle82: +1 x3272 +1 x2250 -1 x2246 = +0
 cycle83: +1 x3256 +1 x2107 -1 x2101 = +0
 cycle84: +1 x1350 -1 x2107 +1 x2106 = +60
 cycle85: +1 x1350 -1 x2250 +1 x2249 = +0
 cycle86: +1 x29 -1 x3266 -1 x3267 -1 x3268 +1 x3275 +1 x3276 +1 x2177 -1 x3401 +1 x3402 = +0
 cycle87: -1 x3268 +1 x3276 -1 x3401 +1 x3402 +1 x2198 = +0
 cycle88: +1 x3272 +1 x2249 -1 x2245 = +0
 cycle89: -1 x4 +1 x5 +1 x7 -1 x8 -1 x83 +1 x86 +1 x3236 -1 x3318 +1 x3371 -1 x3372 +1 x1353 +1 x3182
  = +60
 cycle90: -1 x4 -1 x83 +1 x86 +1 x3234 +1 x3235 +1 x3236 -1 x3253 -1 x3318 +1 x3371 -1 x3372 +1 x1353
  -1 x1585 = +0
 cycle91: +1 x4 -1 x5 -1 x7 +1 x83 -1 x86 -1 x3236 +1 x3306 +1 x3318 -1 x3371 +1 x3372 -1 x1353 +1 x2595
  = +0
 cycle92: +1 x57 +1 x83 -1 x86 -1 x3236 -1 x3371 +1 x3372 -1 x1353 -1 x2675 = -60
 cycle93: -1 x66 +1 x3231 -1 x3399 +1 x1561 = +0
 cycle94: +1 x3277 -1 x3402 +1 x2295 = +60
 cycle95: +1 x3231 -1 x3250 -1 x3399 +1 x1559 = +0
 cycle96: +1 x3269 -1 x3401 +1 x2234 = +60
 cycle97: -1 x3401 +1 x3402 +1 x3405 = +0
 cycle98: +1 x3273 -1 x3369 -1 x2249 +1 x2263 = +0
 cycle99: +1 x3257 -1 x3369 -1 x2106 +1 x2127 = +0
 cycle100: +1 x3280 -1 x3364 -1 x3425 +1 x2338 = +0
 cycle101: -1 x26 +1 x3291 +1 x2177 +1 x2394 = +60
 cycle102: -1 x26 +1 x29 +1 x2177 +1 x2274 = +60
 cycle103: +1 x3260 -1 x3285 -1 x3413 +1 x2163 = +0
 cycle104: +1 x3 -1 x3351 -1 x1980 +1 x2642 = +0
 cycle105: +1 x26 +1 x31 -1 x3266 -1 x3327 = +0
 cycle106: -1 x3260 -1 x3261 +1 x3285 +1 x3286 +1 x3413 -1 x2165 = +0
 cycle107: -1 x28 +1 x3259 +1 x3413 -1 x2142 = +0
 cycle108: +1 x25 +1 x30 -1 x3259 -1 x3324 = +0
 cycle109: +1 x3256 +1 x2106 -1 x2100 = +0
 cycle110: -1 x3293 -1 x3294 -1 x3295 +1 x3329 +1 x3330 +1 x3331 +1 x2779 -1 x2454 +1 x2402 = +0
 cycle111: -1 x3292 -1 x3293 -1 x3294 -1 x3295 +1 x3328 +1 x3329 +1 x3330 +1 x3331 +1 x2779 -1 x2454 +1 x2394
  = +0
 cycle112: +1 x3277 -1 x3404 +1 x2296 = +60
 cycle113: +1 x3269 -1 x3403 +1 x2235 = +60
 cycle114: +1 x4 -1 x67 +1 x69 +1 x83 -1 x86 -1 x3235 -1 x3236 +1 x3318 -1 x3371 +1 x3372 -1 x3403 +1 x3401
  +1 x3220 = +60
 cycle115: -1 x3270 +1 x3278 +1 x2233 -1 x2239 = +0
 cycle116: +1 x3257 -1 x3273 -1 x2105 +1 x2126 = +0
 cycle117: +1 x3256 +1 x3257 -1 x3272 -1 x3273 +1 x2126 -1 x3411 = +0
 cycle118: -1 x3269 -1 x3270 +1 x3277 +1 x3278 +1 x3405 -1 x2239 = +0
 cycle119: +1 x3255 +1 x3256 -1 x3271 -1 x3272 +1 x2105 -1 x2093 = +0
 cycle120: -1 x3264 -1 x3265 +1 x3289 +1 x3290 -1 x2177 +1 x2170 = +0
 cycle121: -1 x3248 +1 x3396 +1 x1940 -1 x1957 = +0
 cycle122: -1 x49 +1 x54 +1 x3245 +1 x3373 -1 x3375 -1 x3393 +1 x3132 +1 x1882 = +60
 cycle123: -1 x49 +1 x54 -1 x3244 +1 x3373 -1 x3375 +1 x3132 +1 x1817 = +120
 cycle124: -1 x3237 -1 x3238 +1 x3389 +1 x3390 +1 x3397 -1 x1694 = +0
 cycle125: -1 x51 +1 x52 +1 x3241 -1 x3374 +1 x3376 +1 x3415 +1 x1795 = +120
 cycle126: -1 x3237 +1 x3389 +1 x3397 -1 x1679 = +0
 cycle127: +1 x69 -1 x3234 -1 x1601 +1 x1591 = +0
 cycle128: +1 x3233 +1 x3234 -1 x3252 -1 x3253 +1 x1601 -1 x1580 = +0
 cycle129: +1 x28 -1 x3257 -1 x3258 -1 x3259 -1 x3260 +1 x3273 +1 x3274 +1 x3285 +1 x2105 -1 x2163 = +0
 cycle130: -1 x3259 +1 x3284 -1 x3413 +1 x2147 = +0
 cycle131: +1 x67 -1 x3253 +1 x1601 +1 x2035 = +60
 cycle132: -1 x67 +1 x69 -1 x3383 -1 x3384 +1 x3387 +1 x3388 -1 x1601 +1 x3215 = +0
 cycle133: -1 x67 +1 x69 -1 x3384 +1 x3388 -1 x1601 +1 x3218 = +0
 cycle134: -1 x3247 -1 x3248 +1 x3395 +1 x3396 -1 x1957 +1 x1925 = +0
 cycle135: -1 x65 +1 x66 -1 x3381 -1 x3382 +1 x3385 +1 x3386 +1 x3399 -1 x3212 = +0
 cycle136: +1 x3246 +1 x3247 +1 x3248 -1 x3394 -1 x3395 -1 x3396 +1 x1957 -1 x1882 = +0
 cycle137: -1 x51 +1 x52 -1 x3240 -1 x3374 +1 x3376 +1 x3392 +1 x3415 +1 x1711 = +60
 cycle138: +1 x51 +1 x57 +1 x83 +1 x3227 -1 x3236 +1 x3374 -1 x91 +1 x88 +1 x1447 = +120
 cycle139: -1 x3333 -1 x3334 -1 x3335 +1 x3361 +1 x3362 +1 x3363 +1 x3424 -1 x3425 +1 x2820 -1 x3012 -60 q139
  = -60
 cycle140: +1 x3283 -1 x3323 -1 x2382 -1 x2147 +1 x2148 -60 q140 = -60
 cycle141: -1 x3282 +1 x3322 -1 x2382 -1 x1792 +1 x1793 -60 q141 = -60
 cycle142: -1 x3245 +1 x3295 -1 x1882 +1 x1838 +1 x2455 -60 q142 = +0
 cycle143: -1 x1 +1 x13 -1 x54 -1 x59 -1 x3373 +1 x3379 +1 x3393 +1 x3394 +1 x3395 +1 x3396 -1 x3203 -60 q143
  = +0
 cycle144: -1 x3257 -1 x3258 +1 x3273 +1 x3274 +1 x2105 -1 x2147 +1 x2265 -60 q144 = +0
 cycle145: +1 x4 -1 x51 +1 x52 -1 x57 +1 x58 -1 x3235 -1 x3374 +1 x3376 +1 x1601 +1 x2339 +1 x1752 -60 q145
  = +60
 cycle146: +1 x6 -1 x54 -1 x59 -1 x3230 -1 x3373 +1 x3377 +1 x3393 +1 x3394 +1 x3395 +1 x3396 -1 x2494
  -1 x3162 -60 q146 = -60
 cycle147: -1 x51 +1 x52 +1 x3241 -1 x3374 +1 x3376 +1 x3415 +1 x1792 +1 x2370 -60 q147 = +120
 cycle148: +1 x3280 -1 x3392 +1 x2336 +1 x2720 -1 x2303 -60 q148 = +0
 cycle149: -1 x3240 +1 x3364 -1 x2338 -1 x1752 +1 x1710 -60 q149 = -60
 cycle150: -1 x3240 +1 x3320 -1 x2336 -1 x1752 +1 x1708 -60 q150 = -60
 cycle151: -1 x51 +1 x52 -1 x3240 -1 x3374 +1 x3376 +1 x3392 +1 x3415 +1 x2303 +1 x1707 -60 q151 = +60
 cycle152: -1 x3240 +1 x3336 -1 x2337 -1 x1752 +1 x1709 -60 q152 = -60
 cycle153: -1 x3333 -1 x3334 -1 x3335 +1 x3361 +1 x3362 +1 x3363 +1 x3424 -1 x3425 +1 x2821 -1 x3013 -60 q153
  = -60
 cycle154: +1 x3282 -1 x3322 +1 x2382 -1 x2370 +1 x2743 -60 q154 = +0
 cycle155: +1 x3364 -1 x3392 +1 x3425 -1 x2303 +1 x3034 -60 q155 = +0
 cycle156: -1 x3280 -1 x3281 +1 x3364 +1 x3425 -1 x2370 +1 x3034 -60 q156 = -60
 cycle157: -1 x3362 -1 x3363 +1 x3390 +1 x3391 +1 x3425 -1 x2303 +1 x3015 -60 q157 = +0
 cycle158: +1 x3425 -1 x2303 +1 x3025 -60 q158 = +0
 cycle159: -1 x3361 -1 x3362 -1 x3363 +1 x3389 +1 x3390 +1 x3391 +1 x3425 -1 x2303 +1 x3005 -60 q159 = +0
 cycle160: +1 x3280 -1 x3392 +1 x2337 -1 x2303 +1 x2862 -60 q160 = +0
 cycle161: -1 x3245 +1 x3331 -1 x1882 +1 x1839 +1 x2780 -60 q161 = +0
 cycle162: -1 x3363 +1 x3391 +1 x3425 -1 x2303 +1 x3020 -60 q162 = +0
 cycle163: -1 x3245 +1 x3365 -1 x1882 +1 x1841 +1 x3050 -60 q163 = +0
 cycle164: -1 x3335 +1 x3391 +1 x3424 -1 x2303 +1 x2834 -60 q164 = +0
 cycle165: -1 x3334 -1 x3335 +1 x3390 +1 x3391 +1 x3424 -1 x2303 +1 x2824 -60 q165 = +0
 cycle166: +1 x3424 -1 x2303 +1 x2844 -60 q166 = +0
 cycle167: -1 x3245 +1 x3347 -1 x1882 +1 x1840 +1 x2910 -60 q167 = +0
 cycle168: +1 x3282 -1 x3322 +1 x2382 +1 x2742 -1 x2369 -60 q168 = +0
 cycle169: +1 x2368 +1 x2742 -1 x2369 -60 q169 = +0
 cycle170: +1 x3241 -1 x3281 -1 x2368 +1 x1793 -1 x1752 -60 q170 = -60
 cycle171: -1 x2336 -1 x1752 +1 x1753 -60 q171 = -60
 cycle172: +1 x3280 +1 x3281 +1 x3333 +1 x3334 +1 x3335 -1 x3389 -1 x3390 -1 x3391 -1 x3392 -1 x3397 -1 x3424
  +1 x2370 +1 x1651 -60 q172 = +60
 cycle173: +1 x3295 -1 x3393 +1 x2455 -1 x2423 -60 q173 = -60
 cycle174: +1 x3331 -1 x3393 +1 x2780 -1 x2756 -60 q174 = -60
 cycle175: +1 x3330 +1 x2756 -1 x2749 -60 q175 = +0
 cycle176: +1 x1 +1 x54 +1 x59 +1 x3298 +1 x3299 +1 x3300 +1 x3355 +1 x3373 +1 x91 +1 x2552 -1 x89 +1 x1384
  -60 q176 = +300
 cycle177: -1 x1792 -1 x2369 +1 x1794 -60 q177 = -60
 cycle178: +1 x3423 -1 x2303 +1 x2693 -60 q178 = +0
 cycle179: +1 x3294 +1 x2423 -1 x2413 -60 q179 = +0
 cycle180: -1 x2370 +1 x2369 +1 x2877 -60 q180 = +0
 cycle181: +1 x3242 -1 x1792 -1 x2370 +1 x1814 -60 q181 = -60
 cycle182: +1 x3346 -1 x2885 +1 x2894 -60 q182 = +0
 cycle183: +1 x54 +1 x59 +1 x3230 +1 x3352 +1 x3353 +1 x3354 +1 x3355 +1 x3373 +1 x91 -1 x89 +1 x1384
  +1 x1355 -60 q183 = +300
 cycle184: -1 x2337 -1 x1752 +1 x1754 -60 q184 = -60
 cycle185: -1 x51 -1 x54 -1 x57 -1 x59 -1 x3230 +1 x3249 -1 x3373 -1 x3374 -1 x3399 -1 x1384 +1 x1358
  -60 q185 = -180
 cycle186: -1 x2338 -1 x1752 +1 x1755 -60 q186 = -60
 cycle187: +1 x3337 +1 x2370 -1 x2862 -1 x2369 -60 q187 = +0
 cycle188: +1 x3365 -1 x3393 +1 x3050 -1 x3042 -60 q188 = -60
 cycle189: +1 x3347 -1 x3393 +1 x2910 -1 x2894 -60 q189 = -60
 cycle190: +1 x3296 -1 x3332 +1 x3418 -1 x2455 +1 x2780 -60 q190 = +0
 cycle191: +1 x3348 -1 x3394 -1 x2910 +1 x2928 -60 q191 = +0
 cycle192: +1 x3366 -1 x3394 -1 x3050 +1 x3059 -60 q192 = +0
 cycle193: +1 x51 +1 x83 +1 x3227 +1 x3228 -1 x3371 +1 x3374 +1 x3402 -1 x91 +1 x88 +1 x1623 +1 x1476
  -60 q193 = +120
 cycle194: -1 x3267 +1 x3275 -1 x2198 -1 x2274 +1 x2184 -60 q194 = -60
 cycle195: -1 x3267 +1 x3275 +1 x2183 -1 x2198 -1 x2273 -60 q195 = -60
 cycle196: -1 x3268 +1 x3276 +1 x2198 -1 x1476 +1 x1475 -60 q196 = +0
 cycle197: +1 x4 +1 x83 -1 x86 -1 x3234 -1 x3235 -1 x3236 +1 x3253 +1 x3318 -1 x3371 +1 x3372 -1 x3404
  +1 x3402 +1 x1356 -1 x1368 -60 q197 = -60
 cycle198: -1 x3246 +1 x3394 -1 x1925 +1 x2780 +1 x1879 -60 q198 = +0
 cycle199: +1 x2909 +1 x3050 -1 x2910 -60 q199 = +0
 cycle200: -1 x3404 -1 x1476 +1 x1478 -60 q200 = -60
 cycle201: -1 x3277 -1 x1476 +1 x1504 -60 q201 = -60
 cycle202: -1 x3402 -1 x1476 +1 x1477 -60 q202 = -60
 cycle203: +1 x83 -1 x86 -1 x3236 +1 x3318 -1 x3371 +1 x3372 -1 x3404 +1 x3402 +1 x1358 +1 x1367 -60 q203
  = +60
 cycle204: -1 x83 +1 x86 +1 x3236 -1 x3318 +1 x3371 -1 x3372 +1 x3404 -1 x3402 +1 x1379 -1 x1360 -60 q204
  = +0
 cycle205: +1 x83 -1 x86 -1 x3236 +1 x3318 -1 x3371 +1 x3372 -1 x3404 +1 x3402 +1 x1359 +1 x1376 -60 q205
  = +60
 cycle206: -1 x3228 +1 x3371 -1 x3402 +1 x1447 -1 x1476 -60 q206 = -60
 cycle207: -1 x3228 +1 x3372 -1 x3404 -1 x1476 +1 x1448 -60 q207 = -60
 cycle208: -1 x3246 +1 x3394 -1 x1925 +1 x2455 +1 x1878 -60 q208 = +0
 cycle209: +1 x2126 -1 x1418 +1 x1417 -60 q209 = +0
 cycle210: -1 x2264 -1 x1418 +1 x1420 -60 q210 = -60
 cycle211: -1 x2263 -1 x1418 +1 x1419 -60 q211 = -60
 cycle212: -1 x3225 +1 x3370 -1 x2264 -1 x1418 +1 x1388 -60 q212 = -60
 cycle213: -1 x3225 +1 x3273 -1 x1418 +1 x1394 -60 q213 = +0
 cycle214: -1 x3225 +1 x3273 -1 x2249 -1 x1418 +1 x1387 -60 q214 = -60
 cycle215: +1 x3247 -1 x3395 -1 x1925 +1 x1939 +1 x3064 -60 q215 = +0
 cycle216: +1 x3348 -1 x3394 +1 x2453 -1 x2455 +1 x2928 -60 q216 = +0
 cycle217: +1 x3272 +1 x3411 -1 x1394 +1 x1385 -60 q217 = +0
 cycle218: -1 x3225 +1 x3272 +1 x3273 -1 x1418 +1 x1386 -60 q218 = +0
 cycle219: +1 x3247 -1 x3395 -1 x1925 +1 x1938 +1 x2938 -60 q219 = +0
 cycle220: -1 x3246 +1 x3348 -1 x1925 +1 x2928 +1 x1880 -60 q220 = +0
 cycle221: -1 x3246 +1 x3394 -1 x1925 +1 x3050 +1 x1881 -60 q221 = +0
 cycle222: -1 x1925 +1 x2928 +1 x1923 -60 q222 = +0
 cycle223: -1 x1925 +1 x3059 +1 x1924 -60 q223 = +0
 cycle224: -1 x3335 +1 x3363 +1 x3424 -1 x3425 -1 x1373 +1 x1374 -60 q224 = -60
 cycle225: -1 x3335 +1 x3363 +1 x3424 -1 x3425 -1 x1380 +1 x1381 -60 q225 = -60
 cycle226: +1 x3243 +1 x1817 -1 x1815 -60 q226 = +60
 cycle227: -1 x3238 -1 x3239 +1 x3334 +1 x3335 -1 x3424 -1 x1707 +1 x1677 -60 q227 = -60
 cycle228: +1 x3270 -1 x3278 +1 x2239 -1 x1504 +1 x1503 -60 q228 = +0
 cycle229: -1 x3237 -1 x3238 -1 x3239 +1 x3361 +1 x3362 +1 x3363 -1 x3425 -1 x1707 +1 x1652 -60 q229 = -60
 cycle230: -1 x3238 -1 x3239 +1 x3362 +1 x3363 -1 x3425 -1 x1707 +1 x1678 -60 q230 = -60
 cycle231: -1 x3239 +1 x3335 -1 x3424 -1 x1707 +1 x1692 -60 q231 = -60
 cycle232: -1 x3239 +1 x3363 -1 x3425 -1 x1707 +1 x1693 -60 q232 = -60
 cycle233: +1 x7 -1 x83 +1 x86 +1 x3236 +1 x3305 -1 x3316 -1 x3317 -1 x3318 +1 x3371 -1 x3372 +1 x3404
  -1 x3402 +1 x2670 -1 x2584 -60 q233 = +0
 cycle234: -1 x83 +1 x86 +1 x3371 -1 x3372 +1 x3404 -1 x3402 -1 x1624 +1 x2676 -60 q234 = +0
 cycle235: -1 x7 +1 x83 -1 x86 -1 x3236 +1 x3317 +1 x3318 -1 x3371 +1 x3372 -1 x3404 +1 x3402 +1 x2588
  -1 x2672 -60 q235 = -60
 cycle236: +1 x7 -1 x8 +1 x10 -1 x83 +1 x86 +1 x3236 -1 x3317 -1 x3318 +1 x3371 -1 x3372 +1 x3404 -1 x3402
  +1 x2046 +1 x2986 -60 q236 = +60
 cycle237: +1 x2 -1 x10 +1 x83 -1 x86 -1 x3235 -1 x3236 +1 x3317 +1 x3318 -1 x3371 +1 x3372 -1 x3404 +1 x3402
  -1 x2046 +1 x2594 -60 q237 = -60
 cycle238: -1 x7 +1 x83 -1 x86 -1 x3236 -1 x3305 +1 x3317 +1 x3318 +1 x3359 -1 x3371 +1 x3372 -1 x3404
  +1 x3402 +1 x2584 -1 x2672 -60 q238 = -60
 cycle239: +1 x9 +1 x3298 -1 x3308 -1 x3309 -1 x3399 +1 x2531 +1 x1354 -60 q239 = +0
 cycle240: -1 x3309 +1 x3352 +1 x2531 +1 x2642 -1 x2532 -60 q240 = +0
 cycle241: +1 x1 +1 x54 +1 x59 +1 x3298 +1 x3299 +1 x3354 +1 x3355 +1 x3373 +1 x91 -1 x89 +1 x1384 +1 x2536
  -60 q241 = +300
 cycle242: +1 x2531 -1 x2532 +1 x2646 -60 q242 = +0
 cycle243: -1 x3299 +1 x3310 +1 x2531 -1 x2536 +1 x2648 -60 q243 = +0
 cycle244: -1 x3377 +1 x3379 +1 x3161 +1 x2494 -1 x2495 -60 q244 = +0
 cycle245: -1 x2494 +1 x2489 +1 x2965 -60 q245 = +0
 cycle246: +1 x7 +1 x51 +1 x57 +1 x3302 +1 x3303 +1 x3304 +1 x3305 +1 x3374 -1 x91 +1 x89 -1 x1377 -60 q246
  = +60
 cycle247: +1 x3301 -1 x3312 -1 x2552 +1 x2557 +1 x2656 -60 q247 = +0
 cycle248: -1 x3302 +1 x3356 -1 x89 +1 x1377 +1 x90 -1 x2562 -60 q248 = +0
 cycle249: -1 x3311 +1 x3354 -1 x2552 +1 x2648 +1 x2551 -60 q249 = +0
 cycle250: -1 x1377 +1 x2559 +1 x1378 -60 q250 = +0
 cycle251: -1 x2552 +1 x2656 +1 x2551 -60 q251 = +0
 cycle252: +1 x51 +1 x57 -1 x3297 -1 x3298 -1 x3299 -1 x3300 -1 x3355 +1 x3374 -1 x91 -1 x2552 +1 x89
  -1 x1359 -60 q252 = -240
 cycle253: -1 x3 -1 x3298 -1 x3299 +1 x3351 +1 x3352 +1 x3353 +1 x3419 +1 x1980 -1 x2536 -60 q253 = +0
 cycle254: -1 x2495 +1 x2489 +1 x2966 -60 q254 = +0
 cycle255: +1 x2 -1 x51 -1 x57 -1 x3235 -1 x3374 +1 x3378 +1 x3389 +1 x3390 +1 x3391 +1 x3392 +1 x2595
  +1 x3202 -60 q255 = +120
 cycle256: +1 x2 -1 x51 -1 x57 -1 x3235 -1 x3374 +1 x3380 +1 x3389 +1 x3390 +1 x3391 +1 x3392 +1 x2596
  +1 x3204 -60 q256 = +120
 cycle257: +1 x3366 +1 x3367 -1 x3394 -1 x3395 +1 x2454 -1 x2455 +1 x3064 -60 q257 = +0
 cycle258: -1 x6 +1 x3297 -1 x1355 +1 x2524 -60 q258 = +0
 cycle259: -1 x1979 -1 x2494 +1 x1989 -60 q259 = -60
 cycle260: -1 x1979 +1 x1980 -1 x2489 -60 q260 = -60
 cycle261: +1 x1360 -1 x1359 -1 x2489 -60 q261 = -60
 cycle262: +1 x2561 -1 x2562 +1 x2659 -60 q262 = +0
 cycle263: +1 x3348 +1 x3349 +1 x3350 -1 x3366 -1 x3367 -1 x3368 -1 x2454 +1 x2453 +1 x2949 -1 x3070 -60 q263
  = -60
 cycle264: -1 x1511 -1 x2628 +1 x1518 -60 q264 = -60
 cycle265: +1 x61 -1 x3307 +1 x2629 -60 q265 = +0
 cycle266: -1 x3306 +1 x3360 +1 x2588 -1 x2594 -60 q266 = -60
 cycle267: -1 x7 +1 x8 -1 x51 -1 x57 -1 x3374 +1 x3380 +1 x3389 +1 x3390 +1 x3391 +1 x3392 +1 x3204 -60 q267
  = +120
 cycle268: +1 x3020 +1 x1381 -1 x1382 -60 q268 = +0
 cycle269: +1 x3020 +1 x1374 -1 x1375 -60 q269 = +0
 cycle270: -1 x3303 +1 x3314 +1 x2561 +1 x2662 -1 x2568 -60 q270 = +0
 cycle271: -1 x3304 +1 x3358 -1 x2584 +1 x2568 -60 q271 = -60
 cycle272: +1 x3418 +1 x1382 -1 x1375 -60 q272 = +0
 cycle273: +1 x7 +1 x51 +1 x57 +1 x3304 +1 x3305 +1 x3356 +1 x3357 +1 x3374 -1 x91 +1 x90 -1 x2568 -60 q273
  = +120
 cycle274: -1 x2043 -1 x2588 +1 x2044 -60 q274 = -60
 cycle275: +1 x3348 +1 x3349 +1 x3350 -1 x3394 -1 x3395 -1 x3396 +1 x2453 -1 x2455 +1 x2950 -60 q275 = +0
 cycle276: +1 x3348 +1 x3349 +1 x3350 -1 x3366 -1 x3367 -1 x3368 -1 x2454 +1 x2453 +1 x2948 -1 x3069 -60 q276
  = -60
 cycle277: -1 x3243 -1 x2413 +1 x1815 -1 x1826 -60 q277 = -120
 cycle278: -1 x2412 -1 x1826 +1 x1816 -60 q278 = -120
 cycle279: +1 x3242 +1 x1384 +1 x1814 -1 x1365 -60 q279 = +60
 cycle280: -1 x2406 -1 x1826 +1 x1827 -60 q280 = -60
 cycle281: +1 x3265 -1 x3290 -1 x2175 +1 x1371 -1 x1372 -60 q281 = -60
 cycle282: +1 x3246 +1 x3247 -1 x3348 -1 x3349 -1 x2453 -1 x1878 +1 x1938 -60 q282 = -60
 cycle283: +1 x3246 +1 x3247 +1 x3248 -1 x3348 -1 x3349 -1 x3350 -1 x2453 -1 x1878 +1 x1953 -60 q283 = -60
 cycle284: -1 x9 +1 x11 -1 x49 -1 x61 +1 x3245 +1 x3366 +1 x3367 +1 x3368 -1 x3375 +1 x3377 +1 x2454 +1 x1878
  +1 x3069 -60 q284 = +120
 cycle285: +1 x2885 -1 x1365 +1 x1364 -60 q285 = +60
 cycle286: -1 x1817 +1 x1384 +1 x1366 -60 q286 = +0
 cycle287: +1 x1384 -1 x2885 +1 x1383 -60 q287 = +0
 cycle288: +1 x1817 -1 x1365 +1 x1363 -60 q288 = +60
 cycle289: -1 x51 +1 x52 -1 x3239 -1 x3240 -1 x3374 +1 x3376 +1 x3391 +1 x3392 +1 x3415 +1 x1382 +1 x1362
  -60 q289 = +120
 cycle290: +1 x9 -1 x11 +1 x49 +1 x61 -1 x3245 -1 x3246 -1 x3247 -1 x3248 +1 x3375 -1 x3377 -1 x1955 -60 q290
  = -120
 cycle291: -1 x13 +1 x49 +1 x61 -1 x3245 -1 x3246 -1 x3247 -1 x3248 +1 x3308 +1 x3375 -1 x3379 -1 x3419
  -1 x1956 -60 q291 = -120
 cycle292: +1 x2947 +1 x1953 -1 x1954 -60 q292 = +0
 cycle293: -1 x3248 +1 x3350 +1 x1938 +1 x2949 -1 x1956 -60 q293 = +0
 cycle294: -1 x65 +1 x66 +1 x3399 +1 x1356 -1 x1357 -60 q294 = +0
 cycle295: -1 x3397 +1 x1651 +1 x2806 -60 q295 = +0
 cycle296: -1 x4 +1 x5 +1 x7 -1 x8 -1 x83 +1 x86 +1 x3236 -1 x3318 +1 x3378 -1 x3380 +1 x1352 +1 x1675
  -1 x1674 -60 q296 = +0
 cycle297: +1 x2821 +1 x1651 -1 x1675 -60 q297 = +0
 cycle298: -1 x3384 +1 x3388 -1 x1591 +1 x3218 +1 x1590 -60 q298 = +0
 cycle299: +1 x2820 +1 x1651 -1 x1674 -60 q299 = +0
 cycle300: +1 x4 -1 x5 +1 x52 +1 x58 -1 x3237 -1 x3238 -1 x3239 -1 x3240 +1 x3376 -1 x3378 +1 x1674 -60 q300
  = -60
 cycle301: -1 x1675 +1 x1674 +1 x3199 -60 q301 = +0
 cycle302: +1 x1585 -1 x1591 +1 x2036 -60 q302 = +0
 cycle303: +1 x3381 -1 x3385 +1 x3210 -1 x1561 +1 x1560 -60 q303 = +0
 cycle304: -1 x1561 +1 x1559 +1 x2028 -60 q304 = +0
 cycle305: +1 x1585 -1 x1357 +1 x1369 -60 q305 = +0
 cycle306: +1 x3418 -1 x1362 +1 x1361 -60 q306 = +0
 cycle307: +1 x2947 -1 x2950 +1 x3071 -60 q307 = +0
 cycle308: -1 x4 +1 x5 +1 x7 -1 x8 -1 x83 +1 x86 +1 x3236 -1 x3318 +1 x3371 -1 x3372 +1 x3403 -1 x3401
  +1 x2986 -1 x2985 -60 q308 = -60
 cycle309: -1 x3272 +1 x2105 -1 x1386 +1 x1393 -60 q309 = +0
 cycle310: +1 x4 +1 x51 +1 x58 +1 x65 -1 x79 -1 x3226 +1 x3229 +1 x3230 +1 x3253 +1 x3374 -1 x3415 -1 x91
  -1 x1368 +1 x1419 +1 x87 -60 q310 = +60
 cycle311: +1 x4 +1 x66 +1 x3249 +1 x3253 -1 x1367 -1 x1369 -60 q311 = +60
 cycle312: -1 x2046 -1 x2985 +1 x2047 -60 q312 = -60
 cycle313: +1 x3313 -1 x3356 +1 x89 -1 x90 -1 x1378 +1 x2659 -60 q313 = -60
 cycle314: -1 x28 +1 x3226 -1 x3274 +1 x3282 +1 x3283 +1 x3284 +1 x91 -1 x2370 -1 x1418 -1 x87 -60 q314
  = -60
 cycle315: +1 x3239 +1 x3240 +1 x3332 +1 x3346 +1 x3347 -1 x2778 +1 x1756 -1 x1383 -1 x1362 -60 q315 = -60
 cycle316: +1 x6 +1 x31 -1 x54 -1 x59 +1 x86 -1 x3230 +1 x3267 +1 x3268 -1 x3318 -1 x3327 -1 x3328 -1 x3329
  -1 x3372 -1 x3373 +1 x3403 -1 x2749 -1 x1376 -60 q316 = -240
 cycle317: +1 x25 +1 x29 -1 x3225 -1 x3226 -1 x3227 -1 x3228 +1 x3257 +1 x3258 +1 x3275 +1 x3276 -1 x2105
  -1 x88 -1 x1476 +1 x1394 -1 x1372 +1 x87 -60 q317 = -120
 cycle318: +1 x30 +1 x3263 +1 x3264 +1 x3265 +1 x3285 +1 x3286 +1 x3287 -1 x3324 +1 x3413 +1 x1371 -1 x1370
  -60 q318 = +60
Bounds
 0 <= q314 <= 1
 0 <= q139 <= 1
 0 <= q140 <= 1
 0 <= q141 <= 1
 0 <= q142 <= 1
 0 <= q143 <= 1
 0 <= q144 <= 1
 0 <= q145 <= 1
 0 <= q146 <= 1
 0 <= q147 <= 1
 0 <= q148 <= 1
 0 <= q149 <= 1
 0 <= q150 <= 1
 0 <= q151 <= 1
 0 <= q152 <= 1
 0 <= q153 <= 1
 0 <= q154 <= 1
 0 <= q155 <= 1
 0 <= q156 <= 1
 0 <= q157 <= 1
 0 <= q158 <= 1
 0 <= q159 <= 1
 0 <= q160 <= 1
 0 <= q161 <= 1
 0 <= q162 <= 1
 0 <= q163 <= 1
 0 <= q164 <= 1
 0 <= q165 <= 1
 0 <= q166 <= 1
 0 <= q167 <= 1
 0 <= q168 <= 1
 0 <= q169 <= 1
 0 <= q170 <= 1
 0 <= q171 <= 1
 0 <= q172 <= 1
 0 <= q173 <= 1
 0 <= q174 <= 1
 0 <= q175 <= 1
 0 <= q176 <= 1
 0 <= q177 <= 1
 0 <= q178 <= 1
 0 <= q179 <= 1
 0 <= q180 <= 1
 0 <= q181 <= 1
 0 <= q182 <= 1
 0 <= q183 <= 1
 0 <= q184 <= 1
 0 <= q185 <= 1
 0 <= q186 <= 1
 0 <= q187 <= 1
 0 <= q188 <= 1
 0 <= q189 <= 1
 0 <= q190 <= 1
 0 <= q191 <= 1
 0 <= q192 <= 1
 0 <= q193 <= 1
 0 <= q194 <= 1
 0 <= q195 <= 1
 0 <= q196 <= 1
 0 <= q197 <= 1
 0 <= q198 <= 1
 0 <= q199 <= 1
 0 <= q200 <= 1
 0 <= q201 <= 1
 0 <= q202 <= 1
 0 <= q203 <= 1
 0 <= q204 <= 1
 0 <= q205 <= 1
 0 <= q206 <= 1
 0 <= q207 <= 1
 0 <= q208 <= 1
 0 <= q209 <= 1
 0 <= q210 <= 1
 0 <= q211 <= 1
 0 <= q212 <= 1
 0 <= q213 <= 1
 0 <= q214 <= 1
 0 <= q215 <= 1
 0 <= q216 <= 1
 0 <= q217 <= 1
 0 <= q218 <= 1
 0 <= q219 <= 1
 0 <= q220 <= 1
 0 <= q221 <= 1
 0 <= q222 <= 1
 0 <= q223 <= 1
 0 <= q224 <= 1
 0 <= q225 <= 1
 0 <= q226 <= 1
 0 <= q227 <= 1
 0 <= q228 <= 1
 0 <= q229 <= 1
 0 <= q230 <= 1
 0 <= q231 <= 1
 0 <= q232 <= 1
 0 <= q233 <= 1
 0 <= q234 <= 1
 0 <= q235 <= 1
 0 <= q236 <= 1
 0 <= q237 <= 1
 0 <= q238 <= 1
 0 <= q239 <= 1
 0 <= q240 <= 1
 0 <= q241 <= 1
 0 <= q242 <= 1
 0 <= q243 <= 1
 0 <= q244 <= 1
 0 <= q245 <= 1
 0 <= q246 <= 1
 0 <= q247 <= 1
 0 <= q248 <= 1
 0 <= q249 <= 1
 0 <= q250 <= 1
 0 <= q251 <= 1
 0 <= q252 <= 1
 0 <= q253 <= 1
 0 <= q254 <= 1
 0 <= q255 <= 1
 0 <= q256 <= 1
 0 <= q257 <= 1
 0 <= q258 <= 1
 0 <= q259 <= 1
 0 <= q260 <= 1
 0 <= q261 <= 1
 0 <= q262 <= 1
 0 <= q263 <= 1
 0 <= q264 <= 1
 0 <= q265 <= 1
 0 <= q266 <= 1
 0 <= q267 <= 1
 0 <= q268 <= 1
 0 <= q269 <= 1
 0 <= q270 <= 1
 0 <= q271 <= 1
 0 <= q272 <= 1
 0 <= q273 <= 1
 0 <= q274 <= 1
 0 <= q275 <= 1
 0 <= q276 <= 1
 0 <= q277 <= 1
 0 <= q278 <= 1
 0 <= q279 <= 1
 0 <= q280 <= 1
 0 <= q281 <= 1
 0 <= q282 <= 1
 0 <= q283 <= 1
 0 <= q284 <= 1
 0 <= q285 <= 1
 0 <= q286 <= 1
 0 <= q287 <= 1
 0 <= q288 <= 1
 0 <= q289 <= 1
 0 <= q290 <= 1
 0 <= q291 <= 1
 0 <= q292 <= 1
 0 <= q293 <= 1
 0 <= q294 <= 1
 0 <= q295 <= 1
 0 <= q296 <= 1
 0 <= q297 <= 1
 0 <= q298 <= 1
 0 <= q299 <= 1
 0 <= q300 <= 1
 0 <= q301 <= 1
 0 <= q302 <= 1
 0 <= q303 <= 1
 0 <= q304 <= 1
 0 <= q305 <= 1
 0 <= q306 <= 1
 0 <= q307 <= 1
 0 <= q308 <= 1
 0 <= q309 <= 1
 0 <= q310 <= 1
 0 <= q311 <= 1
 0 <= q312 <= 1
 0 <= q313 <= 1
 0 <= q317 <= 2
 0 <= q316 <= 2
 0 <= q315 <= 2
 0 <= q318 <= 2
 17 <= x3383 <= 24
 14 <= x3384 <= 21
 24 <= x3385 <= 31
 14 <= x3386 <= 21
 17 <= x3387 <= 24
 14 <= x3388 <= 21
 14 <= x3389 <= 21
 14 <= x3390 <= 21
 11 <= x3391 <= 18
 15 <= x3392 <= 22
 38 <= x3393 <= 45
 15 <= x3394 <= 22
 10 <= x3395 <= 17
 14 <= x3396 <= 21
 30 <= x3417 <= 30
 30 <= x3423 <= 30
 3 <= x2755 <= 56
 15 <= x2779 <= 15
 3 <= x2754 <= 56
 45 <= x2778 <= 45
 30 <= x3397 <= 30
 4 <= x1756 <= 57
 30 <= x2452 <= 30
 45 <= x2454 <= 45
 30 <= x2909 <= 30
 15 <= x2453 <= 15
 3 <= x2893 <= 57
 3 <= x2937 <= 57
 3 <= x2421 <= 56
 59 <= x2748 <= 112
 3 <= x2833 <= 57
 30 <= x3435 <= 30
 30 <= x3418 <= 30
 3 <= x2947 <= 57
 4 <= x2406 <= 57
 3 <= x2422 <= 56
 4 <= x2420 <= 57
 30 <= x3413 <= 30
 3 <= x2382 <= 57
 1 <= x2266 <= 55
 4 <= x2368 <= 57
 3 <= x2386 <= 57
 30 <= x3415 <= 30
 3 <= x3154 <= 57
 3 <= x1617 <= 57
 38 <= x1842 <= 91
 3 <= x3125 <= 57
 30 <= x3132 <= 30
 3 <= x2861 <= 57
 15 <= x3427 <= 15
 3 <= x2719 <= 56
 30 <= x2177 <= 30
 4 <= x2183 <= 57
 3 <= x2927 <= 57
 59 <= x2412 <= 112
 15 <= x3424 <= 15
 3 <= x2337 <= 56
 45 <= x3426 <= 45
 3 <= x2823 <= 57
 3 <= x2718 <= 56
 45 <= x3425 <= 45
 3 <= x1538 <= 57
 3 <= x2583 <= 57
 30 <= x2587 <= 30
 13 <= x1519 <= 66
 30 <= x1351 <= 30
 30 <= x1353 <= 30
 30 <= x1352 <= 30
 30 <= x3419 <= 30
 30 <= x3399 <= 30
 3 <= x2567 <= 57
 30 <= x3421 <= 30
 3 <= x3161 <= 57
 15 <= x3403 <= 15
 45 <= x3401 <= 45
 45 <= x3404 <= 45
 15 <= x3402 <= 15
 30 <= x1511 <= 30
 3 <= x1979 <= 57
 3 <= x3205 <= 57
 3 <= x2531 <= 57
 3 <= x2535 <= 57
 5 <= x1990 <= 57
 5 <= x2494 <= 57
 3 <= x2561 <= 57
 13 <= x2628 <= 66
 4 <= x3165 <= 57
 13 <= x1616 <= 67
 3 <= x2045 <= 57
 4 <= x2336 <= 57
 5 <= x2048 <= 57
 13 <= x2043 <= 67
 30 <= x1601 <= 30
 3 <= x2805 <= 57
 4 <= x1624 <= 57
 4 <= x2175 <= 57
 4 <= x2027 <= 57
 3 <= x1575 <= 57
 4 <= x2182 <= 57
 30 <= x1350 <= 30
 3 <= x3210 <= 57
 10 <= x2107 <= 10
 31 <= x2105 <= 31
 39 <= x2250 <= 39
 3 <= x2264 <= 57
 3 <= x2128 <= 57
 4 <= x2246 <= 57
 4 <= x2101 <= 57
 40 <= x2106 <= 40
 9 <= x2249 <= 9
 4 <= x2198 <= 57
 4 <= x2245 <= 57
 4 <= x3182 <= 57
 4 <= x1585 <= 57
 4 <= x2595 <= 57
 4 <= x2675 <= 57
 4 <= x1561 <= 57
 45 <= x2295 <= 99
 3 <= x1559 <= 57
 46 <= x2234 <= 100
 30 <= x3405 <= 30
 3 <= x2263 <= 57
 3 <= x2127 <= 57
 3 <= x2338 <= 56
 3 <= x2394 <= 57
 4 <= x2274 <= 57
 4 <= x2163 <= 57
 5 <= x1980 <= 57
 4 <= x2642 <= 57
 4 <= x2165 <= 57
 3 <= x2142 <= 57
 4 <= x2100 <= 57
 3 <= x2402 <= 57
 45 <= x2296 <= 99
 46 <= x2235 <= 100
 3 <= x3220 <= 57
 31 <= x2233 <= 31
 4 <= x2239 <= 57
 4 <= x2126 <= 57
 30 <= x3411 <= 30
 4 <= x2093 <= 57
 4 <= x2170 <= 57
 4 <= x1940 <= 57
 30 <= x1957 <= 30
 4 <= x1882 <= 57
 57 <= x1817 <= 110
 3 <= x1694 <= 57
 53 <= x1795 <= 106
 4 <= x1679 <= 57
 22 <= x1591 <= 75
 4 <= x1580 <= 57
 1 <= x2147 <= 55
 22 <= x2035 <= 75
 3 <= x3215 <= 57
 3 <= x3218 <= 57
 4 <= x1925 <= 57
 3 <= x3212 <= 57
 3 <= x1711 <= 57
 57 <= x91 <= 57
 51 <= x88 <= 51
 3 <= x1447 <= 56
 11 <= x2820 <= 64
 11 <= x3012 <= 64
 16 <= x1 <= 21
 1 <= x2148 <= 55
 37 <= x2 <= 42
 3 <= x1792 <= 57
 3 <= x1793 <= 57
 33 <= x3 <= 38
 3 <= x1838 <= 56
 4 <= x2455 <= 57
 37 <= x4 <= 42
 3 <= x3203 <= 57
 40 <= x5 <= 47
 1 <= x2265 <= 55
 33 <= x6 <= 38
 4 <= x2339 <= 57
 3 <= x1752 <= 57
 27 <= x7 <= 32
 3 <= x3162 <= 57
 30 <= x8 <= 37
 53 <= x2370 <= 106
 16 <= x9 <= 21
 3 <= x2720 <= 57
 4 <= x2303 <= 57
 27 <= x10 <= 32
 3 <= x1710 <= 56
 35 <= x11 <= 42
 3 <= x1708 <= 57
 34 <= x13 <= 41
 3 <= x1707 <= 56
 22 <= x25 <= 27
 3 <= x1709 <= 56
 18 <= x26 <= 23
 11 <= x2821 <= 64
 11 <= x3013 <= 64
 22 <= x28 <= 27
 53 <= x2743 <= 106
 18 <= x29 <= 23
 4 <= x3034 <= 57
 24 <= x30 <= 29
 4 <= x31 <= 9
 5 <= x3015 <= 57
 14 <= x49 <= 19
 4 <= x3025 <= 57
 10 <= x51 <= 15
 4 <= x3005 <= 57
 10 <= x52 <= 15
 4 <= x2862 <= 57
 39 <= x54 <= 44
 3 <= x1839 <= 57
 4 <= x2780 <= 57
 19 <= x57 <= 26
 4 <= x3020 <= 57
 19 <= x58 <= 26
 3 <= x1841 <= 56
 4 <= x3050 <= 57
 29 <= x59 <= 36
 4 <= x2834 <= 57
 29 <= x61 <= 36
 5 <= x2824 <= 57
 40 <= x65 <= 47
 4 <= x2844 <= 57
 40 <= x66 <= 47
 3 <= x1840 <= 56
 4 <= x2910 <= 57
 28 <= x67 <= 35
 3 <= x2742 <= 57
 3 <= x2369 <= 57
 28 <= x69 <= 35
 36 <= x79 <= 41
 36 <= x82 <= 41
 4 <= x1753 <= 57
 32 <= x83 <= 37
 3 <= x1651 <= 56
 32 <= x86 <= 37
 38 <= x2423 <= 91
 25 <= x3225 <= 32
 38 <= x2756 <= 91
 30 <= x3226 <= 37
 52 <= x2749 <= 105
 3 <= x3227 <= 10
 3 <= x2552 <= 57
 0 <= x89 <= 0
 27 <= x1384 <= 81
 31 <= x3228 <= 38
 3 <= x1794 <= 57
 37 <= x3229 <= 44
 3 <= x2693 <= 57
 15 <= x3230 <= 22
 52 <= x2413 <= 105
 38 <= x3231 <= 45
 53 <= x2877 <= 106
 42 <= x3232 <= 49
 32 <= x1814 <= 86
 17 <= x3233 <= 24
 57 <= x2885 <= 110
 38 <= x2894 <= 91
 45 <= x3234 <= 52
 1 <= x1355 <= 59
 36 <= x3235 <= 43
 3 <= x1754 <= 56
 17 <= x3236 <= 24
 33 <= x1358 <= 89
 16 <= x3237 <= 23
 3 <= x1755 <= 56
 15 <= x3238 <= 22
 11 <= x3239 <= 18
 38 <= x3042 <= 91
 15 <= x3240 <= 22
 13 <= x3241 <= 20
 22 <= x3242 <= 29
 4 <= x2928 <= 57
 8 <= x3243 <= 15
 4 <= x3059 <= 57
 21 <= x3244 <= 28
 4 <= x1623 <= 57
 3 <= x1476 <= 56
 13 <= x3245 <= 20
 4 <= x2184 <= 57
 16 <= x3246 <= 23
 4 <= x2273 <= 57
 11 <= x3247 <= 18
 3 <= x1475 <= 56
 17 <= x3248 <= 24
 14 <= x1356 <= 68
 14 <= x1368 <= 68
 34 <= x3249 <= 41
 3 <= x1879 <= 57
 38 <= x3250 <= 45
 42 <= x3251 <= 49
 3 <= x1478 <= 56
 17 <= x3252 <= 24
 21 <= x1504 <= 75
 45 <= x3253 <= 52
 3 <= x1477 <= 56
 38 <= x3254 <= 45
 31 <= x1367 <= 87
 14 <= x3255 <= 21
 34 <= x1379 <= 90
 34 <= x1360 <= 90
 8 <= x3256 <= 18
 33 <= x1359 <= 89
 31 <= x1376 <= 87
 22 <= x3257 <= 29
 28 <= x3258 <= 35
 3 <= x1448 <= 56
 21 <= x3259 <= 28
 3 <= x1878 <= 57
 18 <= x3260 <= 25
 3 <= x1418 <= 57
 3 <= x1417 <= 57
 15 <= x3261 <= 22
 3 <= x1420 <= 56
 4 <= x3263 <= 11
 3 <= x1419 <= 56
 15 <= x3264 <= 22
 3 <= x1388 <= 56
 15 <= x3265 <= 22
 9 <= x1394 <= 62
 17 <= x3266 <= 24
 3 <= x1387 <= 56
 20 <= x3267 <= 27
 3 <= x1939 <= 56
 5 <= x3064 <= 57
 31 <= x3268 <= 38
 19 <= x3269 <= 29
 3 <= x1385 <= 56
 9 <= x3270 <= 16
 3 <= x1386 <= 56
 14 <= x3271 <= 21
 3 <= x1938 <= 56
 5 <= x2938 <= 57
 8 <= x3272 <= 18
 3 <= x1880 <= 56
 21 <= x3273 <= 28
 3 <= x1881 <= 56
 28 <= x3274 <= 35
 3 <= x1923 <= 56
 19 <= x3275 <= 26
 3 <= x1924 <= 56
 31 <= x3276 <= 38
 53 <= x1373 <= 109
 53 <= x1374 <= 109
 19 <= x3277 <= 29
 53 <= x1380 <= 109
 53 <= x1381 <= 109
 8 <= x3278 <= 15
 3 <= x1815 <= 57
 5 <= x3279 <= 12
 3 <= x1677 <= 56
 15 <= x3280 <= 22
 20 <= x1503 <= 74
 13 <= x3281 <= 20
 3 <= x1652 <= 56
 17 <= x3282 <= 24
 3 <= x1678 <= 56
 13 <= x3283 <= 20
 3 <= x1692 <= 56
 23 <= x3284 <= 30
 3 <= x1693 <= 56
 17 <= x3285 <= 24
 4 <= x2670 <= 57
 4 <= x2584 <= 57
 14 <= x3286 <= 21
 4 <= x2676 <= 57
 15 <= x3287 <= 22
 4 <= x2588 <= 57
 4 <= x2672 <= 57
 15 <= x3289 <= 22
 5 <= x2046 <= 57
 3 <= x2986 <= 56
 14 <= x3290 <= 21
 5 <= x2594 <= 57
 17 <= x3291 <= 24
 22 <= x3292 <= 29
 1 <= x1354 <= 59
 13 <= x3293 <= 20
 3 <= x2532 <= 57
 16 <= x3294 <= 23
 4 <= x2536 <= 57
 13 <= x3295 <= 20
 3 <= x2646 <= 57
 16 <= x3296 <= 23
 4 <= x2648 <= 57
 34 <= x3297 <= 41
 5 <= x2495 <= 57
 25 <= x3298 <= 32
 5 <= x2489 <= 57
 4 <= x2965 <= 57
 11 <= x3299 <= 18
 8 <= x1377 <= 64
 24 <= x3300 <= 31
 3 <= x2557 <= 56
 3 <= x2656 <= 57
 11 <= x3301 <= 18
 53 <= x90 <= 53
 4 <= x2562 <= 57
 9 <= x3302 <= 16
 3 <= x2551 <= 57
 11 <= x3303 <= 18
 3 <= x2559 <= 57
 8 <= x1378 <= 64
 25 <= x3304 <= 32
 12 <= x3305 <= 19
 28 <= x3306 <= 35
 37 <= x3307 <= 44
 4 <= x2966 <= 57
 15 <= x3308 <= 22
 56 <= x3202 <= 110
 25 <= x3309 <= 32
 5 <= x2596 <= 57
 56 <= x3204 <= 110
 11 <= x3310 <= 18
 24 <= x3311 <= 31
 4 <= x2524 <= 57
 11 <= x3312 <= 18
 5 <= x1989 <= 57
 9 <= x3313 <= 16
 11 <= x3314 <= 18
 25 <= x3315 <= 32
 4 <= x2659 <= 57
 12 <= x3316 <= 19
 4 <= x2949 <= 57
 4 <= x3070 <= 57
 26 <= x3317 <= 33
 13 <= x1518 <= 66
 17 <= x3318 <= 24
 13 <= x2629 <= 66
 4 <= x3319 <= 11
 15 <= x3320 <= 22
 13 <= x3321 <= 20
 53 <= x1382 <= 110
 17 <= x3322 <= 24
 53 <= x1375 <= 110
 13 <= x3323 <= 20
 4 <= x2662 <= 57
 4 <= x2568 <= 57
 23 <= x3324 <= 30
 3 <= x3327 <= 10
 22 <= x3328 <= 29
 13 <= x3329 <= 20
 14 <= x2044 <= 68
 16 <= x3330 <= 23
 4 <= x2950 <= 57
 13 <= x3331 <= 20
 4 <= x2948 <= 57
 4 <= x3069 <= 57
 16 <= x3332 <= 23
 8 <= x1826 <= 61
 17 <= x3333 <= 24
 3 <= x1816 <= 56
 16 <= x3334 <= 23
 17 <= x1365 <= 71
 12 <= x3335 <= 19
 8 <= x1827 <= 61
 16 <= x3336 <= 23
 15 <= x1371 <= 69
 15 <= x1372 <= 69
 13 <= x3337 <= 20
 21 <= x3346 <= 28
 3 <= x1953 <= 56
 13 <= x3347 <= 20
 16 <= x3348 <= 23
 21 <= x1364 <= 77
 11 <= x3349 <= 18
 32 <= x1366 <= 86
 18 <= x3350 <= 25
 32 <= x1383 <= 86
 31 <= x3351 <= 38
 21 <= x1363 <= 77
 24 <= x3352 <= 31
 10 <= x1362 <= 66
 11 <= x3353 <= 18
 3 <= x1955 <= 57
 24 <= x3354 <= 31
 3 <= x1956 <= 57
 11 <= x3355 <= 18
 3 <= x1954 <= 56
 8 <= x3356 <= 15
 11 <= x3357 <= 18
 14 <= x1357 <= 68
 24 <= x3358 <= 31
 4 <= x2806 <= 57
 11 <= x3359 <= 18
 10 <= x1675 <= 64
 10 <= x1674 <= 64
 25 <= x3360 <= 32
 17 <= x3361 <= 24
 22 <= x1590 <= 75
 16 <= x3362 <= 23
 12 <= x3363 <= 19
 16 <= x3364 <= 23
 3 <= x3199 <= 57
 13 <= x3365 <= 20
 22 <= x2036 <= 75
 16 <= x3366 <= 23
 4 <= x1560 <= 57
 11 <= x3367 <= 18
 4 <= x2028 <= 57
 18 <= x3368 <= 25
 14 <= x1369 <= 68
 27 <= x3369 <= 34
 10 <= x1361 <= 66
 27 <= x3370 <= 34
 4 <= x3071 <= 57
 33 <= x3371 <= 40
 3 <= x2985 <= 56
 33 <= x3372 <= 40
 9 <= x1393 <= 62
 8 <= x3373 <= 15
 7 <= x87 <= 7
 26 <= x3374 <= 33
 8 <= x3375 <= 15
 4 <= x2047 <= 57
 26 <= x3376 <= 33
 7 <= x3377 <= 14
 30 <= x3378 <= 37
 7 <= x3379 <= 14
 30 <= x3380 <= 37
 24 <= x3381 <= 31
 3 <= x1370 <= 59
 14 <= x3382 <= 21
Binaries
 q314 q139 q140 q141 q142 q143 q144 q145 q146 q147 q148 q149 q150 q151 q152 q153 q154 q155 q156 q157 q158
 q159 q160 q161 q162 q163 q164 q165 q166 q167 q168 q169 q170 q171 q172 q173 q174 q175 q176 q177 q178 q179
 q180 q181 q182 q183 q184 q185 q186 q187 q188 q189 q190 q191 q192 q193 q194 q195 q196 q197 q198 q199 q200
 q201 q202 q203 q204 q205 q206 q207 q208 q209 q210 q211 q212 q213 q214 q215 q216 q217 q218 q219 q220 q221
 q222 q223 q224 q225 q226 q227 q228 q229 q230 q231 q232 q233 q234 q235 q236 q237 q238 q239 q240 q241 q242
 q243 q244 q245 q246 q247 q248 q249 q250 q251 q252 q253 q254 q255 q256 q257 q258 q259 q260 q261 q262 q263
 q264 q265 q266 q267 q268 q269 q270 q271 q272 q273 q274 q275 q276 q277 q278 q279 q280 q281 q282 q283 q284
 q285 q286 q287 q288 q289 q290 q291 q292 q293 q294 q295 q296 q297 q298 q299 q300 q301 q302 q303 q304 q305
 q306 q307 q308 q309 q310 q311 q312 q313
Generals
 q317 q316 q315 q318
End
